p tw 100 16501 2 
1 3 
1 4 
1 5 
1 6 
1 7 
1 8 
1 9 
1 10 
1 11 
1 12 
1 13 
1 14 
1 15 
1 16 
1 17 
1 18 
1 19 
1 20 
1 21 
1 22 
1 23 
1 30 
1 37 
1 47 
1 56 
1 61 
1 70 
1 79 
1 80 
1 81 
1 82 
1 83 
2 3 
2 4 
2 5 
2 6 
2 7 
2 8 
2 9 
2 10 
2 11 
2 12 
2 13 
2 15 
2 24 
2 25 
2 26 
2 27 
2 28 
2 29 
2 30 
2 31 
2 32 
2 33 
2 34 
2 43 
2 44 
2 45 
2 46 
2 47 
2 48 
2 49 
2 50 
2 51 
3 4 
3 5 
3 6 
3 7 
3 8 
3 9 
3 10 
3 11 
3 12 
3 14 
3 23 
3 24 
3 33 
3 34 
3 35 
3 36 
3 37 
3 38 
3 39 
3 40 
3 41 
3 42 
3 47 
3 52 
3 65 
3 74 
3 84 
3 92 
3 94 
3 96 
3 99 
4 5 
4 6 
4 7 
4 8 
4 9 
4 10 
4 11 
4 12 
4 16 
4 20 
4 25 
4 31 
4 34 
4 35 
4 43 
4 52 
4 53 
4 54 
4 55 
4 56 
4 57 
4 58 
4 61 
4 69 
4 72 
4 76 
4 96 
4 97 
4 98 
4 100 
5 6 
5 7 
5 8 
5 9 
5 10 
5 11 
5 12 
5 16 
5 17 
5 26 
5 32 
5 36 
5 42 
5 44 
5 46 
5 52 
5 59 
5 60 
5 61 
5 62 
5 63 
5 64 
5 67 
5 73 
5 83 
5 87 
5 90 
5 92 
5 98 
6 7 
6 8 
6 9 
6 10 
6 11 
6 12 
6 18 
6 21 
6 27 
6 31 
6 37 
6 38 
6 43 
6 45 
6 53 
6 59 
6 62 
6 65 
6 66 
6 67 
6 68 
6 69 
6 75 
6 79 
6 84 
6 88 
6 89 
6 90 
7 8 
7 9 
7 10 
7 11 
7 12 
7 18 
7 19 
7 28 
7 29 
7 38 
7 40 
7 45 
7 51 
7 54 
7 58 
7 60 
7 63 
7 70 
7 71 
7 72 
7 73 
7 74 
7 82 
7 90 
7 93 
7 99 
7 100 
8 9 
8 10 
8 11 
8 12 
8 13 
8 17 
8 29 
8 36 
8 39 
8 46 
8 48 
8 55 
8 57 
8 65 
8 67 
8 70 
8 72 
8 75 
8 76 
8 77 
8 78 
8 80 
8 88 
8 93 
8 94 
8 95 
9 10 
9 11 
9 12 
9 14 
9 20 
9 25 
9 30 
9 40 
9 48 
9 49 
9 55 
9 59 
9 64 
9 68 
9 71 
9 73 
9 77 
9 81 
9 84 
9 85 
9 86 
9 87 
9 89 
9 93 
9 96 
10 11 
10 12 
10 19 
10 22 
10 24 
10 32 
10 41 
10 49 
10 50 
10 57 
10 58 
10 62 
10 63 
10 66 
10 69 
10 71 
10 76 
10 78 
10 79 
10 81 
10 85 
10 91 
10 92 
10 94 
11 12 
11 15 
11 21 
11 26 
11 33 
11 41 
11 42 
11 51 
11 53 
11 54 
11 64 
11 66 
11 74 
11 75 
11 77 
11 80 
11 82 
11 85 
11 86 
11 91 
11 95 
11 97 
11 98 
12 22 
12 23 
12 27 
12 28 
12 35 
12 39 
12 44 
12 50 
12 56 
12 60 
12 68 
12 78 
12 83 
12 86 
12 87 
12 88 
12 89 
12 91 
12 95 
12 97 
12 99 
12 100 
13 14 
13 15 
13 16 
13 17 
13 18 
13 19 
13 20 
13 21 
13 22 
13 23 
13 24 
13 25 
13 26 
13 27 
13 28 
13 29 
13 30 
13 31 
13 32 
13 33 
13 36 
13 48 
13 57 
13 67 
13 72 
13 80 
13 88 
13 93 
13 94 
13 95 
14 15 
14 16 
14 17 
14 18 
14 19 
14 20 
14 21 
14 22 
14 23 
14 24 
14 25 
14 34 
14 35 
14 36 
14 37 
14 38 
14 39 
14 40 
14 41 
14 42 
14 49 
14 64 
14 68 
14 73 
14 77 
14 81 
14 89 
14 93 
14 96 
15 16 
15 17 
15 18 
15 19 
15 20 
15 21 
15 22 
15 23 
15 33 
15 34 
15 42 
15 43 
15 44 
15 45 
15 46 
15 47 
15 48 
15 49 
15 50 
15 51 
15 54 
15 64 
15 66 
15 75 
15 82 
15 85 
15 95 
15 97 
16 17 
16 18 
16 19 
16 20 
16 21 
16 22 
16 23 
16 25 
16 32 
16 35 
16 42 
16 43 
16 46 
16 52 
16 53 
16 54 
16 55 
16 56 
16 57 
16 58 
16 67 
16 73 
16 83 
16 87 
16 90 
16 92 
16 98 
17 18 
17 19 
17 20 
17 21 
17 22 
17 23 
17 26 
17 29 
17 36 
17 39 
17 44 
17 46 
17 52 
17 55 
17 59 
17 60 
17 61 
17 62 
17 63 
17 64 
17 65 
17 70 
17 75 
17 76 
17 77 
17 78 
18 19 
18 20 
18 21 
18 22 
18 23 
18 27 
18 29 
18 37 
18 40 
18 45 
18 51 
18 53 
18 58 
18 59 
18 63 
18 65 
18 66 
18 67 
18 68 
18 69 
18 82 
18 90 
18 93 
18 99 
18 100 
19 20 
19 21 
19 22 
19 23 
19 28 
19 32 
19 38 
19 41 
19 45 
19 50 
19 54 
19 58 
19 60 
19 62 
19 69 
19 70 
19 71 
19 72 
19 73 
19 74 
19 78 
19 81 
19 85 
19 94 
20 21 
20 22 
20 23 
20 30 
20 31 
20 34 
20 40 
20 48 
20 55 
20 59 
20 61 
20 69 
20 71 
20 72 
20 76 
20 84 
20 85 
20 86 
20 87 
20 96 
20 97 
20 98 
20 100 
21 22 
21 23 
21 26 
21 31 
21 38 
21 41 
21 43 
21 51 
21 53 
21 62 
21 74 
21 75 
21 77 
21 79 
21 80 
21 84 
21 86 
21 88 
21 89 
21 90 
21 91 
21 98 
22 23 
22 24 
22 28 
22 35 
22 44 
22 49 
22 57 
22 63 
22 66 
22 68 
22 71 
22 76 
22 78 
22 79 
22 83 
22 86 
22 88 
22 91 
22 92 
22 97 
22 99 
23 27 
23 33 
23 39 
23 47 
23 50 
23 52 
23 56 
23 60 
23 65 
23 74 
23 84 
23 87 
23 89 
23 91 
23 92 
23 94 
23 95 
23 96 
23 99 
23 100 
24 25 
24 26 
24 27 
24 28 
24 29 
24 30 
24 31 
24 32 
24 33 
24 34 
24 35 
24 36 
24 37 
24 38 
24 39 
24 40 
24 41 
24 42 
24 49 
24 57 
24 63 
24 66 
24 71 
24 76 
24 79 
24 91 
24 92 
25 26 
25 27 
25 28 
25 29 
25 30 
25 31 
25 32 
25 33 
25 35 
25 43 
25 49 
25 52 
25 53 
25 54 
25 55 
25 56 
25 57 
25 58 
25 64 
25 68 
25 73 
25 77 
25 81 
25 89 
25 93 
25 96 
26 27 
26 28 
26 29 
26 30 
26 31 
26 32 
26 33 
26 36 
26 41 
26 44 
26 51 
26 52 
26 53 
26 59 
26 60 
26 61 
26 62 
26 63 
26 64 
26 74 
26 77 
26 80 
26 86 
26 91 
26 98 
27 28 
27 29 
27 30 
27 31 
27 32 
27 33 
27 37 
27 39 
27 45 
27 50 
27 53 
27 56 
27 59 
27 60 
27 65 
27 66 
27 67 
27 68 
27 69 
27 87 
27 89 
27 91 
27 95 
27 100 
28 29 
28 30 
28 31 
28 32 
28 33 
28 35 
28 38 
28 44 
28 45 
28 54 
28 60 
28 68 
28 70 
28 71 
28 72 
28 73 
28 74 
28 78 
28 83 
28 86 
28 88 
28 97 
28 99 
29 30 
29 31 
29 32 
29 33 
29 39 
29 40 
29 46 
29 51 
29 55 
29 58 
29 63 
29 65 
29 70 
29 75 
29 76 
29 77 
29 78 
29 82 
29 90 
29 93 
29 99 
29 100 
30 31 
30 32 
30 33 
30 37 
30 40 
30 47 
30 48 
30 55 
30 56 
30 59 
30 61 
30 70 
30 71 
30 79 
30 80 
30 81 
30 82 
30 83 
30 84 
30 85 
30 86 
30 87 
31 32 
31 33 
31 34 
31 38 
31 43 
31 61 
31 62 
31 69 
31 72 
31 75 
31 76 
31 79 
31 84 
31 88 
31 89 
31 90 
31 96 
31 97 
31 98 
31 100 
32 33 
32 41 
32 42 
32 46 
32 50 
32 58 
32 62 
32 67 
32 69 
32 73 
32 78 
32 81 
32 83 
32 85 
32 87 
32 90 
32 92 
32 94 
32 98 
33 42 
33 47 
33 52 
33 54 
33 64 
33 65 
33 66 
33 74 
33 75 
33 82 
33 84 
33 85 
33 92 
33 94 
33 95 
33 96 
33 97 
33 99 
34 35 
34 36 
34 37 
34 38 
34 39 
34 40 
34 41 
34 42 
34 43 
34 44 
34 45 
34 46 
34 47 
34 48 
34 49 
34 50 
34 51 
34 61 
34 69 
34 72 
34 76 
34 96 
34 97 
34 98 
34 100 
35 36 
35 37 
35 38 
35 39 
35 40 
35 41 
35 42 
35 43 
35 44 
35 52 
35 53 
35 54 
35 55 
35 56 
35 57 
35 58 
35 68 
35 78 
35 83 
35 86 
35 88 
35 97 
35 99 
36 37 
36 38 
36 39 
36 40 
36 41 
36 42 
36 44 
36 48 
36 52 
36 57 
36 59 
36 60 
36 61 
36 62 
36 63 
36 64 
36 67 
36 72 
36 80 
36 88 
36 93 
36 94 
36 95 
37 38 
37 39 
37 40 
37 41 
37 42 
37 45 
37 47 
37 53 
37 56 
37 59 
37 61 
37 65 
37 66 
37 67 
37 68 
37 69 
37 70 
37 79 
37 80 
37 81 
37 82 
37 83 
38 39 
38 40 
38 41 
38 42 
38 43 
38 45 
38 54 
38 60 
38 62 
38 70 
38 71 
38 72 
38 73 
38 74 
38 75 
38 79 
38 84 
38 88 
38 89 
38 90 
39 40 
39 41 
39 42 
39 46 
39 50 
39 55 
39 56 
39 60 
39 65 
39 70 
39 75 
39 76 
39 77 
39 78 
39 87 
39 89 
39 91 
39 95 
39 100 
40 41 
40 42 
40 48 
40 51 
40 55 
40 58 
40 59 
40 63 
40 71 
40 82 
40 84 
40 85 
40 86 
40 87 
40 90 
40 93 
40 99 
40 100 
41 42 
41 50 
41 51 
41 53 
41 58 
41 62 
41 69 
41 74 
41 77 
41 78 
41 80 
41 81 
41 85 
41 86 
41 91 
41 94 
41 98 
42 46 
42 54 
42 64 
42 66 
42 67 
42 73 
42 75 
42 82 
42 83 
42 85 
42 87 
42 90 
42 92 
42 95 
42 97 
42 98 
43 44 
43 45 
43 46 
43 47 
43 48 
43 49 
43 50 
43 51 
43 52 
43 53 
43 54 
43 55 
43 56 
43 57 
43 58 
43 62 
43 75 
43 79 
43 84 
43 88 
43 89 
43 90 
44 45 
44 46 
44 47 
44 48 
44 49 
44 50 
44 51 
44 52 
44 59 
44 60 
44 61 
44 62 
44 63 
44 64 
44 68 
44 78 
44 83 
44 86 
44 88 
44 97 
44 99 
45 46 
45 47 
45 48 
45 49 
45 50 
45 51 
45 53 
45 54 
45 59 
45 60 
45 65 
45 66 
45 67 
45 68 
45 69 
45 70 
45 71 
45 72 
45 73 
45 74 
46 47 
46 48 
46 49 
46 50 
46 51 
46 55 
46 65 
46 67 
46 70 
46 73 
46 75 
46 76 
46 77 
46 78 
46 83 
46 87 
46 90 
46 92 
46 98 
47 48 
47 49 
47 50 
47 51 
47 52 
47 56 
47 61 
47 65 
47 70 
47 74 
47 79 
47 80 
47 81 
47 82 
47 83 
47 84 
47 92 
47 94 
47 96 
47 99 
48 49 
48 50 
48 51 
48 55 
48 57 
48 59 
48 67 
48 71 
48 72 
48 80 
48 84 
48 85 
48 86 
48 87 
48 88 
48 93 
48 94 
48 95 
49 50 
49 51 
49 57 
49 63 
49 64 
49 66 
49 68 
49 71 
49 73 
49 76 
49 77 
49 79 
49 81 
49 89 
49 91 
49 92 
49 93 
49 96 
50 51 
50 56 
50 58 
50 60 
50 62 
50 69 
50 78 
50 81 
50 85 
50 87 
50 89 
50 91 
50 94 
50 95 
50 100 
51 53 
51 58 
51 63 
51 74 
51 77 
51 80 
51 82 
51 86 
51 90 
51 91 
51 93 
51 98 
51 99 
51 100 
52 53 
52 54 
52 55 
52 56 
52 57 
52 58 
52 59 
52 60 
52 61 
52 62 
52 63 
52 64 
52 65 
52 74 
52 84 
52 92 
52 94 
52 96 
52 99 
53 54 
53 55 
53 56 
53 57 
53 58 
53 59 
53 65 
53 66 
53 67 
53 68 
53 69 
53 74 
53 77 
53 80 
53 86 
53 91 
53 98 
54 55 
54 56 
54 57 
54 58 
54 60 
54 64 
54 66 
54 70 
54 71 
54 72 
54 73 
54 74 
54 75 
54 82 
54 85 
54 95 
54 97 
55 56 
55 57 
55 58 
55 59 
55 65 
55 70 
55 71 
55 75 
55 76 
55 77 
55 78 
55 84 
55 85 
55 86 
55 87 
56 57 
56 58 
56 60 
56 61 
56 70 
56 79 
56 80 
56 81 
56 82 
56 83 
56 87 
56 89 
56 91 
56 95 
56 100 
57 58 
57 63 
57 66 
57 67 
57 71 
57 72 
57 76 
57 79 
57 80 
57 88 
57 91 
57 92 
57 93 
57 94 
57 95 
58 62 
58 63 
58 69 
58 78 
58 81 
58 82 
58 85 
58 90 
58 93 
58 94 
58 99 
58 100 
59 60 
59 61 
59 62 
59 63 
59 64 
59 65 
59 66 
59 67 
59 68 
59 69 
59 71 
59 84 
59 85 
59 86 
59 87 
60 61 
60 62 
60 63 
60 64 
60 70 
60 71 
60 72 
60 73 
60 74 
60 87 
60 89 
60 91 
60 95 
60 100 
61 62 
61 63 
61 64 
61 69 
61 70 
61 72 
61 76 
61 79 
61 80 
61 81 
61 82 
61 83 
61 96 
61 97 
61 98 
61 100 
62 63 
62 64 
62 69 
62 75 
62 78 
62 79 
62 81 
62 84 
62 85 
62 88 
62 89 
62 90 
62 94 
63 64 
63 66 
63 71 
63 76 
63 79 
63 82 
63 90 
63 91 
63 92 
63 93 
63 99 
63 100 
64 66 
64 68 
64 73 
64 75 
64 77 
64 81 
64 82 
64 85 
64 89 
64 93 
64 95 
64 96 
64 97 
65 66 
65 67 
65 68 
65 69 
65 70 
65 74 
65 75 
65 76 
65 77 
65 78 
65 84 
65 92 
65 94 
65 96 
65 99 
66 67 
66 68 
66 69 
66 71 
66 75 
66 76 
66 79 
66 82 
66 85 
66 91 
66 92 
66 95 
66 97 
67 68 
67 69 
67 72 
67 73 
67 80 
67 83 
67 87 
67 88 
67 90 
67 92 
67 93 
67 94 
67 95 
67 98 
68 69 
68 73 
68 77 
68 78 
68 81 
68 83 
68 86 
68 88 
68 89 
68 93 
68 96 
68 97 
68 99 
69 72 
69 76 
69 78 
69 81 
69 85 
69 94 
69 96 
69 97 
69 98 
69 100 
70 71 
70 72 
70 73 
70 74 
70 75 
70 76 
70 77 
70 78 
70 79 
70 80 
70 81 
70 82 
70 83 
71 72 
71 73 
71 74 
71 76 
71 79 
71 84 
71 85 
71 86 
71 87 
71 91 
71 92 
72 73 
72 74 
72 76 
72 80 
72 88 
72 93 
72 94 
72 95 
72 96 
72 97 
72 98 
72 100 
73 74 
73 77 
73 81 
73 83 
73 87 
73 89 
73 90 
73 92 
73 93 
73 96 
73 98 
74 77 
74 80 
74 84 
74 86 
74 91 
74 92 
74 94 
74 96 
74 98 
74 99 
75 76 
75 77 
75 78 
75 79 
75 82 
75 84 
75 85 
75 88 
75 89 
75 90 
75 95 
75 97 
76 77 
76 78 
76 79 
76 91 
76 92 
76 96 
76 97 
76 98 
76 100 
77 78 
77 80 
77 81 
77 86 
77 89 
77 91 
77 93 
77 96 
77 98 
78 81 
78 83 
78 85 
78 86 
78 88 
78 94 
78 97 
78 99 
79 80 
79 81 
79 82 
79 83 
79 84 
79 88 
79 89 
79 90 
79 91 
79 92 
80 81 
80 82 
80 83 
80 86 
80 88 
80 91 
80 93 
80 94 
80 95 
80 98 
81 82 
81 83 
81 85 
81 89 
81 93 
81 94 
81 96 
82 83 
82 85 
82 90 
82 93 
82 95 
82 97 
82 99 
82 100 
83 86 
83 87 
83 88 
83 90 
83 92 
83 97 
83 98 
83 99 
84 85 
84 86 
84 87 
84 88 
84 89 
84 90 
84 92 
84 94 
84 96 
84 99 
85 86 
85 87 
85 94 
85 95 
85 97 
86 87 
86 88 
86 91 
86 97 
86 98 
86 99 
87 89 
87 90 
87 91 
87 92 
87 95 
87 98 
87 100 
88 89 
88 90 
88 93 
88 94 
88 95 
88 97 
88 99 
89 90 
89 91 
89 93 
89 95 
89 96 
89 100 
90 92 
90 93 
90 98 
90 99 
90 100 
91 92 
91 95 
91 98 
91 100 
92 94 
92 96 
92 98 
92 99 
93 94 
93 95 
93 96 
93 99 
93 100 
94 95 
94 96 
94 99 
95 97 
95 100 
96 97 
96 98 
96 99 
96 100 
97 98 
97 99 
97 100 
98 100 
99 100 
